c Reading file examples/loan_acquisition/mmc_encoding/encoding.dimacs
c Building 1-fold quantitative self-composition...
c ind 144  145  150  151  152  153  154  155  184  185  186  195  196  197  198  199  200  201  202  203  207  208  212  213 0
c previous ind: 543  544  547  548  551  552  555  556  559  562  563  566  569  570  573  574  577  578  581  582  585  586  587  590  591  594  595  598  599  602  605  606  609  610  613  614  616  617  618 0
c This is a CNF SAT formula in the DIMACS CNF format,
c produced with the bc2cnf translator by Tommi Junttila;
c see http://users.ics.aalto.fi/tjunttil/circuits/index.html
c phi_Gamma_det <-> 1
c phi_Gamma <-> 1
c phi_T_feature_det <-> 1
c phi_T_transitions <-> 1
c phi_T_transitions_consistency <-> 1
c phi_T <-> 1
c phi_sim_leaves <-> 1
c phi_sim_transition <-> 1
c phi_sim <-> 1
c FORMULA <-> 1
c pi_1 <-> 2
c pi_0 <-> 84
c tau_1_3_approved_1 <-> 144
c tau_1_3_approved_0 <-> 145
c tau_1_2_approved_1 <-> 150
c tau_1_2_approved_0 <-> 151
c tau_1_1_approved_1 <-> 152
c tau_1_1_approved_0 <-> 153
c tau_1_0_approved_1 <-> 154
c tau_1_0_approved_0 <-> 155
c tau_0_3_approved_1 <-> 184
c tau_0_3_approved_0 <-> 185
c tau_0_3_1 <-> 186
c tau_0_2_approved_1 <-> 195
c tau_0_2_approved_0 <-> 196
c tau_0_2_1 <-> 197
c tau_0_1_approved_1 <-> 198
c tau_0_1_approved_0 <-> 199
c tau_0_1_1 <-> 200
c tau_0_0_approved_1 <-> 201
c tau_0_0_approved_0 <-> 202
c tau_0_0_1 <-> 203
c lam_1_monthly_income <-> 207
c lam_1_age <-> 208
c lam_0_monthly_income <-> 212
c lam_0_age <-> 213
c phi_Gamma_val <-> 541
c monthly_income_P758200 <-> 543
c age_P5800 <-> 544
c monthly_income_P462500 <-> 547
c age_P3600 <-> 548
c monthly_income_P123100 <-> 551
c age_P4900 <-> 552
c monthly_income_P821700 <-> 555
c age_P7600 <-> 556
c monthly_income_P939000 <-> 559
c monthly_income_P374800 <-> 562
c age_P7800 <-> 563
c monthly_income_P810600 <-> 566
c monthly_income_P387600 <-> 569
c age_P4800 <-> 570
c monthly_income_P942100 <-> 573
c age_P3400 <-> 574
c monthly_income_P973600 <-> 577
c age_P7000 <-> 578
c monthly_income_P138300 <-> 581
c age_P2800 <-> 582
c pi_approved_0 <-> 585
c approved_P0 <-> 585
c monthly_income_P997800 <-> 586
c age_P2500 <-> 587
c monthly_income_P922500 <-> 590
c age_P6100 <-> 591
c monthly_income_P279700 <-> 594
c age_P3200 <-> 595
c monthly_income_P399900 <-> 598
c age_P5000 <-> 599
c monthly_income_P170300 <-> 602
c monthly_income_P177100 <-> 605
c age_P4300 <-> 606
c monthly_income_P171700 <-> 609
c age_P3300 <-> 610
c monthly_income_P403800 <-> 613
c age_P6900 <-> 614
c pi_approved_1 <-> 616
c approved_P100 <-> 616
c monthly_income_P511200 <-> 617
c age_P7900 <-> 618
c ind 543 544 547 548 551 552 555 556 559 562 563 566 569 570 573 574 577 578 581 582 585 586 587 590 591 594 595 598 599 602 605 606 609 610 613 614 616 617 618 0
p cnf 620 1709
1 0
2 -3 0
2 -12 0
-2 12 3 0
-3 4 0
-3 57 0
3 -57 -4 0
-4 5 0
-4 207 0
4 -207 -5 0
5 -6 0
5 -53 0
-5 53 6 0
6 -7 0
6 -32 0
-6 32 7 0
7 -8 0
7 -80 0
-7 80 8 0
8 -9 0
8 -36 0
-8 36 9 0
9 -10 0
9 -68 0
-9 68 10 0
10 -11 0
10 -38 0
-10 38 11 0
11 -40 0
11 -83 0
-11 83 40 0
12 -13 0
12 -25 0
-12 25 13 0
-13 14 0
-13 75 0
13 -75 -14 0
-14 15 0
-14 207 0
14 -207 -15 0
15 -16 0
15 -62 0
-15 62 16 0
16 -17 0
16 -64 0
-16 64 17 0
17 -18 0
17 -34 0
-17 34 18 0
18 -19 0
18 -66 0
-18 66 19 0
19 -20 0
19 -82 0
-19 82 20 0
20 -21 0
20 -70 0
-20 70 21 0
21 -22 0
21 -54 0
-21 54 22 0
22 -23 0
22 -42 0
-22 42 23 0
23 -24 0
23 -72 0
-23 72 24 0
24 -43 0
24 -73 0
-24 73 43 0
25 -26 0
25 -46 0
-25 46 26 0
-26 27 0
-26 30 0
26 -30 -27 0
-27 28 0
-27 29 0
27 -29 -28 0
28 144 0
28 -616 0
-28 616 -144 0
29 145 0
29 -585 0
-29 585 -145 0
-30 31 0
-30 208 0
30 -208 -31 0
31 -32 0
31 -33 0
-31 33 32 0
-32 555 0
-32 556 0
32 -556 -555 0
33 -34 0
33 -35 0
-33 35 34 0
-34 562 0
-34 563 0
34 -563 -562 0
35 -36 0
35 -37 0
-35 37 36 0
-36 566 0
-36 591 0
36 -591 -566 0
37 -38 0
37 -39 0
-37 39 38 0
-38 577 0
-38 578 0
38 -578 -577 0
39 -40 0
39 -41 0
-39 41 40 0
-40 590 0
-40 591 0
40 -591 -590 0
41 -42 0
41 -43 0
-41 43 42 0
-42 602 0
-42 614 0
42 -614 -602 0
43 -44 0
43 -45 0
-43 45 44 0
-44 613 0
-44 614 0
44 -614 -613 0
-45 617 0
-45 618 0
45 -618 -617 0
46 -47 0
46 -55 0
-46 55 47 0
-47 48 0
-47 51 0
47 -51 -48 0
-48 49 0
-48 50 0
48 -50 -49 0
49 150 0
49 -616 0
-49 616 -150 0
50 151 0
50 -585 0
-50 585 -151 0
-51 52 0
-51 208 0
51 -208 -52 0
52 -53 0
52 -54 0
-52 54 53 0
-53 543 0
-53 544 0
53 -544 -543 0
-54 598 0
-54 599 0
54 -599 -598 0
55 -56 0
55 -74 0
-55 74 56 0
-56 57 0
-56 60 0
56 -60 -57 0
-57 58 0
-57 59 0
57 -59 -58 0
58 152 0
58 -616 0
-58 616 -152 0
59 153 0
59 -585 0
-59 585 -153 0
-60 61 0
-60 208 0
60 -208 -61 0
61 -62 0
61 -63 0
-61 63 62 0
-62 547 0
-62 548 0
62 -548 -547 0
63 -64 0
63 -65 0
-63 65 64 0
-64 551 0
-64 552 0
64 -552 -551 0
65 -66 0
65 -67 0
-65 67 66 0
-66 569 0
-66 570 0
66 -570 -569 0
67 -68 0
67 -69 0
-67 69 68 0
-68 573 0
-68 574 0
68 -574 -573 0
69 -70 0
69 -71 0
-69 71 70 0
-70 594 0
-70 595 0
70 -595 -594 0
71 -72 0
71 -73 0
-71 73 72 0
-72 605 0
-72 606 0
72 -606 -605 0
-73 609 0
-73 610 0
73 -610 -609 0
-74 75 0
-74 78 0
74 -78 -75 0
-75 76 0
-75 77 0
75 -77 -76 0
76 154 0
76 -616 0
-76 616 -154 0
77 155 0
77 -585 0
-77 585 -155 0
-78 79 0
-78 208 0
78 -208 -79 0
79 -80 0
79 -81 0
-79 81 80 0
-80 559 0
-80 587 0
80 -587 -559 0
81 -82 0
81 -83 0
-81 83 82 0
-82 581 0
-82 582 0
82 -582 -581 0
-83 586 0
-83 587 0
83 -587 -586 0
84 -85 0
84 -87 0
-84 87 85 0
84 0
-85 86 0
-85 108 0
85 -108 -86 0
-86 5 0
-86 212 0
86 -212 -5 0
87 -88 0
87 -90 0
-87 90 88 0
-88 89 0
-88 115 0
88 -115 -89 0
-89 15 0
-89 212 0
89 -212 -15 0
90 -91 0
90 -98 0
-90 98 91 0
-91 92 0
-91 97 0
91 -97 -92 0
-92 93 0
-92 94 0
92 -94 -93 0
93 184 0
93 -616 0
-93 616 -184 0
-94 95 0
-94 96 0
94 -96 -95 0
95 185 0
95 -585 0
-95 585 -185 0
96 -2 0
96 186 0
-96 -186 2 0
-97 31 0
-97 213 0
97 -213 -31 0
98 -99 0
98 -106 0
-98 106 99 0
-99 100 0
-99 105 0
99 -105 -100 0
-100 101 0
-100 102 0
100 -102 -101 0
101 195 0
101 -616 0
-101 616 -195 0
-102 103 0
-102 104 0
102 -104 -103 0
103 196 0
103 -585 0
-103 585 -196 0
104 -2 0
104 197 0
-104 -197 2 0
-105 52 0
-105 213 0
105 -213 -52 0
106 -107 0
106 -114 0
-106 114 107 0
-107 108 0
-107 113 0
107 -113 -108 0
-108 109 0
-108 110 0
108 -110 -109 0
109 198 0
109 -616 0
-109 616 -198 0
-110 111 0
-110 112 0
110 -112 -111 0
111 199 0
111 -585 0
-111 585 -199 0
112 -2 0
112 200 0
-112 -200 2 0
-113 61 0
-113 213 0
113 -213 -61 0
-114 115 0
-114 120 0
114 -120 -115 0
-115 116 0
-115 117 0
115 -117 -116 0
116 201 0
116 -616 0
-116 616 -201 0
-117 118 0
-117 119 0
117 -119 -118 0
118 202 0
118 -585 0
-118 585 -202 0
119 -2 0
119 203 0
-119 -203 2 0
-120 79 0
-120 213 0
120 -213 -79 0
121 207 0
121 -122 0
-121 122 -207 0
121 0
-122 -144 0
-122 123 0
122 -123 144 0
-123 -145 0
-123 124 0
123 -124 145 0
-124 -150 0
-124 -151 0
124 151 150 0
125 212 0
125 -126 0
-125 126 -212 0
125 0
-126 -184 0
-126 127 0
126 -127 184 0
-127 -185 0
-127 128 0
127 -128 185 0
-128 -186 0
-128 129 0
128 -129 186 0
-129 -195 0
-129 130 0
129 -130 195 0
-130 -196 0
-130 -197 0
130 197 196 0
131 207 0
131 -132 0
-131 132 -207 0
131 0
-132 133 0
-132 136 0
132 -136 -133 0
133 -134 0
133 -135 0
-133 135 134 0
-134 -153 0
-134 152 0
134 -152 153 0
-135 -152 0
-135 153 0
135 -153 152 0
136 -137 0
136 -138 0
-136 138 137 0
-137 -155 0
-137 154 0
137 -154 155 0
-138 -154 0
-138 155 0
138 -155 154 0
139 208 0
139 -140 0
-139 140 -208 0
139 0
-140 141 0
-140 146 0
140 -146 -141 0
141 -142 0
141 -143 0
-141 143 142 0
-142 -145 0
-142 144 0
142 -144 145 0
-143 -144 0
-143 145 0
143 -145 144 0
-146 132 0
-146 147 0
146 -147 -132 0
147 -148 0
147 -149 0
-147 149 148 0
-148 -151 0
-148 150 0
148 -150 151 0
-149 -150 0
-149 151 0
149 -151 150 0
156 212 0
156 -157 0
-156 157 -212 0
156 0
-157 158 0
-157 166 0
157 -166 -158 0
158 -159 0
158 -164 0
-158 164 159 0
159 -160 0
159 -162 0
-159 162 160 0
-160 161 0
-160 198 0
160 -198 -161 0
-161 -199 0
-161 -200 0
161 200 199 0
-162 163 0
-162 199 0
162 -199 -163 0
-163 -198 0
-163 -200 0
163 200 198 0
-164 165 0
-164 200 0
164 -200 -165 0
-165 -198 0
-165 -199 0
165 199 198 0
166 -167 0
166 -172 0
-166 172 167 0
167 -168 0
167 -170 0
-167 170 168 0
-168 169 0
-168 201 0
168 -201 -169 0
-169 -202 0
-169 -203 0
169 203 202 0
-170 171 0
-170 202 0
170 -202 -171 0
-171 -201 0
-171 -203 0
171 203 201 0
-172 173 0
-172 203 0
172 -203 -173 0
-173 -201 0
-173 -202 0
173 202 201 0
174 213 0
174 -175 0
-174 175 -213 0
174 0
-175 176 0
-175 187 0
175 -187 -176 0
176 -177 0
176 -182 0
-176 182 177 0
177 -178 0
177 -180 0
-177 180 178 0
-178 179 0
-178 184 0
178 -184 -179 0
-179 -185 0
-179 -186 0
179 186 185 0
-180 181 0
-180 185 0
180 -185 -181 0
-181 -184 0
-181 -186 0
181 186 184 0
-182 183 0
-182 186 0
182 -186 -183 0
-183 -184 0
-183 -185 0
183 185 184 0
-187 157 0
-187 188 0
187 -188 -157 0
188 -189 0
188 -193 0
-188 193 189 0
189 -190 0
189 -191 0
-189 191 190 0
-190 130 0
-190 195 0
190 -195 -130 0
-191 192 0
-191 196 0
191 -196 -192 0
-192 -195 0
-192 -197 0
192 197 195 0
-193 194 0
-193 197 0
193 -197 -194 0
-194 -195 0
-194 -196 0
194 196 195 0
204 -205 0
204 -206 0
-204 206 205 0
204 0
-205 -208 0
-205 207 0
205 -207 208 0
-206 -207 0
-206 208 0
206 -208 207 0
209 -210 0
209 -211 0
-209 211 210 0
209 0
-210 -213 0
-210 212 0
210 -212 213 0
-211 -212 0
-211 213 0
211 -213 212 0
214 616 0
214 585 0
-214 -585 -616 0
214 0
215 547 0
215 543 0
-215 -543 -547 0
215 0
216 551 0
216 -217 0
-216 217 -551 0
216 0
-217 -547 0
-217 -543 0
217 543 547 0
218 555 0
218 -219 0
-218 219 -555 0
218 0
-219 -543 0
-219 220 0
219 -220 543 0
-220 -547 0
-220 -551 0
220 551 547 0
221 559 0
221 -222 0
-221 222 -559 0
221 0
-222 -543 0
-222 223 0
222 -223 543 0
-223 -547 0
-223 224 0
223 -224 547 0
-224 -551 0
-224 -555 0
224 555 551 0
225 562 0
225 -226 0
-225 226 -562 0
225 0
-226 -543 0
-226 227 0
226 -227 543 0
-227 -547 0
-227 228 0
227 -228 547 0
-228 -551 0
-228 229 0
228 -229 551 0
-229 -555 0
-229 -559 0
229 559 555 0
230 566 0
230 -231 0
-230 231 -566 0
230 0
-231 -543 0
-231 232 0
231 -232 543 0
-232 -547 0
-232 233 0
232 -233 547 0
-233 -551 0
-233 234 0
233 -234 551 0
-234 -555 0
-234 235 0
234 -235 555 0
-235 -559 0
-235 -562 0
235 562 559 0
236 569 0
236 -237 0
-236 237 -569 0
236 0
-237 -543 0
-237 238 0
237 -238 543 0
-238 -547 0
-238 239 0
238 -239 547 0
-239 -551 0
-239 240 0
239 -240 551 0
-240 -555 0
-240 241 0
240 -241 555 0
-241 -559 0
-241 242 0
241 -242 559 0
-242 -562 0
-242 -566 0
242 566 562 0
243 573 0
243 -244 0
-243 244 -573 0
243 0
-244 -543 0
-244 245 0
244 -245 543 0
-245 -547 0
-245 246 0
245 -246 547 0
-246 -551 0
-246 247 0
246 -247 551 0
-247 -555 0
-247 248 0
247 -248 555 0
-248 -559 0
-248 249 0
248 -249 559 0
-249 -562 0
-249 250 0
249 -250 562 0
-250 -566 0
-250 -569 0
250 569 566 0
251 577 0
251 -252 0
-251 252 -577 0
251 0
-252 -543 0
-252 253 0
252 -253 543 0
-253 -547 0
-253 254 0
253 -254 547 0
-254 -551 0
-254 255 0
254 -255 551 0
-255 -555 0
-255 256 0
255 -256 555 0
-256 -559 0
-256 257 0
256 -257 559 0
-257 -562 0
-257 258 0
257 -258 562 0
-258 -566 0
-258 259 0
258 -259 566 0
-259 -569 0
-259 -573 0
259 573 569 0
260 581 0
260 -261 0
-260 261 -581 0
260 0
-261 -543 0
-261 262 0
261 -262 543 0
-262 -547 0
-262 263 0
262 -263 547 0
-263 -551 0
-263 264 0
263 -264 551 0
-264 -555 0
-264 265 0
264 -265 555 0
-265 -559 0
-265 266 0
265 -266 559 0
-266 -562 0
-266 267 0
266 -267 562 0
-267 -566 0
-267 268 0
267 -268 566 0
-268 -569 0
-268 269 0
268 -269 569 0
-269 -573 0
-269 -577 0
269 577 573 0
270 586 0
270 -271 0
-270 271 -586 0
270 0
-271 -543 0
-271 272 0
271 -272 543 0
-272 -547 0
-272 273 0
272 -273 547 0
-273 -551 0
-273 274 0
273 -274 551 0
-274 -555 0
-274 275 0
274 -275 555 0
-275 -559 0
-275 276 0
275 -276 559 0
-276 -562 0
-276 277 0
276 -277 562 0
-277 -566 0
-277 278 0
277 -278 566 0
-278 -569 0
-278 279 0
278 -279 569 0
-279 -573 0
-279 280 0
279 -280 573 0
-280 -577 0
-280 -581 0
280 581 577 0
281 590 0
281 -282 0
-281 282 -590 0
281 0
-282 -543 0
-282 283 0
282 -283 543 0
-283 -547 0
-283 284 0
283 -284 547 0
-284 -551 0
-284 285 0
284 -285 551 0
-285 -555 0
-285 286 0
285 -286 555 0
-286 -559 0
-286 287 0
286 -287 559 0
-287 -562 0
-287 288 0
287 -288 562 0
-288 -566 0
-288 289 0
288 -289 566 0
-289 -569 0
-289 290 0
289 -290 569 0
-290 -573 0
-290 291 0
290 -291 573 0
-291 -577 0
-291 292 0
291 -292 577 0
-292 -581 0
-292 -586 0
292 586 581 0
293 594 0
293 -294 0
-293 294 -594 0
293 0
-294 -543 0
-294 295 0
294 -295 543 0
-295 -547 0
-295 296 0
295 -296 547 0
-296 -551 0
-296 297 0
296 -297 551 0
-297 -555 0
-297 298 0
297 -298 555 0
-298 -559 0
-298 299 0
298 -299 559 0
-299 -562 0
-299 300 0
299 -300 562 0
-300 -566 0
-300 301 0
300 -301 566 0
-301 -569 0
-301 302 0
301 -302 569 0
-302 -573 0
-302 303 0
302 -303 573 0
-303 -577 0
-303 304 0
303 -304 577 0
-304 -581 0
-304 305 0
304 -305 581 0
-305 -586 0
-305 -590 0
305 590 586 0
306 598 0
306 -307 0
-306 307 -598 0
306 0
-307 -543 0
-307 308 0
307 -308 543 0
-308 -547 0
-308 309 0
308 -309 547 0
-309 -551 0
-309 310 0
309 -310 551 0
-310 -555 0
-310 311 0
310 -311 555 0
-311 -559 0
-311 312 0
311 -312 559 0
-312 -562 0
-312 313 0
312 -313 562 0
-313 -566 0
-313 314 0
313 -314 566 0
-314 -569 0
-314 315 0
314 -315 569 0
-315 -573 0
-315 316 0
315 -316 573 0
-316 -577 0
-316 317 0
316 -317 577 0
-317 -581 0
-317 318 0
317 -318 581 0
-318 -586 0
-318 319 0
318 -319 586 0
-319 -590 0
-319 -594 0
319 594 590 0
320 602 0
320 -321 0
-320 321 -602 0
320 0
-321 -543 0
-321 322 0
321 -322 543 0
-322 -547 0
-322 323 0
322 -323 547 0
-323 -551 0
-323 324 0
323 -324 551 0
-324 -555 0
-324 325 0
324 -325 555 0
-325 -559 0
-325 326 0
325 -326 559 0
-326 -562 0
-326 327 0
326 -327 562 0
-327 -566 0
-327 328 0
327 -328 566 0
-328 -569 0
-328 329 0
328 -329 569 0
-329 -573 0
-329 330 0
329 -330 573 0
-330 -577 0
-330 331 0
330 -331 577 0
-331 -581 0
-331 332 0
331 -332 581 0
-332 -586 0
-332 333 0
332 -333 586 0
-333 -590 0
-333 334 0
333 -334 590 0
-334 -594 0
-334 -598 0
334 598 594 0
335 605 0
335 -336 0
-335 336 -605 0
335 0
-336 -543 0
-336 337 0
336 -337 543 0
-337 -547 0
-337 338 0
337 -338 547 0
-338 -551 0
-338 339 0
338 -339 551 0
-339 -555 0
-339 340 0
339 -340 555 0
-340 -559 0
-340 341 0
340 -341 559 0
-341 -562 0
-341 342 0
341 -342 562 0
-342 -566 0
-342 343 0
342 -343 566 0
-343 -569 0
-343 344 0
343 -344 569 0
-344 -573 0
-344 345 0
344 -345 573 0
-345 -577 0
-345 346 0
345 -346 577 0
-346 -581 0
-346 347 0
346 -347 581 0
-347 -586 0
-347 348 0
347 -348 586 0
-348 -590 0
-348 349 0
348 -349 590 0
-349 -594 0
-349 350 0
349 -350 594 0
-350 -598 0
-350 -602 0
350 602 598 0
351 609 0
351 -352 0
-351 352 -609 0
351 0
-352 -543 0
-352 353 0
352 -353 543 0
-353 -547 0
-353 354 0
353 -354 547 0
-354 -551 0
-354 355 0
354 -355 551 0
-355 -555 0
-355 356 0
355 -356 555 0
-356 -559 0
-356 357 0
356 -357 559 0
-357 -562 0
-357 358 0
357 -358 562 0
-358 -566 0
-358 359 0
358 -359 566 0
-359 -569 0
-359 360 0
359 -360 569 0
-360 -573 0
-360 361 0
360 -361 573 0
-361 -577 0
-361 362 0
361 -362 577 0
-362 -581 0
-362 363 0
362 -363 581 0
-363 -586 0
-363 364 0
363 -364 586 0
-364 -590 0
-364 365 0
364 -365 590 0
-365 -594 0
-365 366 0
365 -366 594 0
-366 -598 0
-366 367 0
366 -367 598 0
-367 -602 0
-367 -605 0
367 605 602 0
368 613 0
368 -369 0
-368 369 -613 0
368 0
-369 -543 0
-369 370 0
369 -370 543 0
-370 -547 0
-370 371 0
370 -371 547 0
-371 -551 0
-371 372 0
371 -372 551 0
-372 -555 0
-372 373 0
372 -373 555 0
-373 -559 0
-373 374 0
373 -374 559 0
-374 -562 0
-374 375 0
374 -375 562 0
-375 -566 0
-375 376 0
375 -376 566 0
-376 -569 0
-376 377 0
376 -377 569 0
-377 -573 0
-377 378 0
377 -378 573 0
-378 -577 0
-378 379 0
378 -379 577 0
-379 -581 0
-379 380 0
379 -380 581 0
-380 -586 0
-380 381 0
380 -381 586 0
-381 -590 0
-381 382 0
381 -382 590 0
-382 -594 0
-382 383 0
382 -383 594 0
-383 -598 0
-383 384 0
383 -384 598 0
-384 -602 0
-384 385 0
384 -385 602 0
-385 -605 0
-385 -609 0
385 609 605 0
386 617 0
386 -387 0
-386 387 -617 0
386 0
-387 -543 0
-387 388 0
387 -388 543 0
-388 -547 0
-388 389 0
388 -389 547 0
-389 -551 0
-389 390 0
389 -390 551 0
-390 -555 0
-390 391 0
390 -391 555 0
-391 -559 0
-391 392 0
391 -392 559 0
-392 -562 0
-392 393 0
392 -393 562 0
-393 -566 0
-393 394 0
393 -394 566 0
-394 -569 0
-394 395 0
394 -395 569 0
-395 -573 0
-395 396 0
395 -396 573 0
-396 -577 0
-396 397 0
396 -397 577 0
-397 -581 0
-397 398 0
397 -398 581 0
-398 -586 0
-398 399 0
398 -399 586 0
-399 -590 0
-399 400 0
399 -400 590 0
-400 -594 0
-400 401 0
400 -401 594 0
-401 -598 0
-401 402 0
401 -402 598 0
-402 -602 0
-402 403 0
402 -403 602 0
-403 -605 0
-403 404 0
403 -404 605 0
-404 -609 0
-404 -613 0
404 613 609 0
405 548 0
405 544 0
-405 -544 -548 0
405 0
406 552 0
406 -407 0
-406 407 -552 0
406 0
-407 -548 0
-407 -544 0
407 544 548 0
408 556 0
408 -409 0
-408 409 -556 0
408 0
-409 -544 0
-409 410 0
409 -410 544 0
-410 -548 0
-410 -552 0
410 552 548 0
411 563 0
411 -412 0
-411 412 -563 0
411 0
-412 -544 0
-412 413 0
412 -413 544 0
-413 -548 0
-413 414 0
413 -414 548 0
-414 -552 0
-414 -556 0
414 556 552 0
415 570 0
415 -416 0
-415 416 -570 0
415 0
-416 -544 0
-416 417 0
416 -417 544 0
-417 -548 0
-417 418 0
417 -418 548 0
-418 -552 0
-418 419 0
418 -419 552 0
-419 -556 0
-419 -563 0
419 563 556 0
420 574 0
420 -421 0
-420 421 -574 0
420 0
-421 -544 0
-421 422 0
421 -422 544 0
-422 -548 0
-422 423 0
422 -423 548 0
-423 -552 0
-423 424 0
423 -424 552 0
-424 -556 0
-424 425 0
424 -425 556 0
-425 -563 0
-425 -570 0
425 570 563 0
426 578 0
426 -427 0
-426 427 -578 0
426 0
-427 -544 0
-427 428 0
427 -428 544 0
-428 -548 0
-428 429 0
428 -429 548 0
-429 -552 0
-429 430 0
429 -430 552 0
-430 -556 0
-430 431 0
430 -431 556 0
-431 -563 0
-431 432 0
431 -432 563 0
-432 -570 0
-432 -574 0
432 574 570 0
433 582 0
433 -434 0
-433 434 -582 0
433 0
-434 -544 0
-434 435 0
434 -435 544 0
-435 -548 0
-435 436 0
435 -436 548 0
-436 -552 0
-436 437 0
436 -437 552 0
-437 -556 0
-437 438 0
437 -438 556 0
-438 -563 0
-438 439 0
438 -439 563 0
-439 -570 0
-439 440 0
439 -440 570 0
-440 -574 0
-440 -578 0
440 578 574 0
441 587 0
441 -442 0
-441 442 -587 0
441 0
-442 -544 0
-442 443 0
442 -443 544 0
-443 -548 0
-443 444 0
443 -444 548 0
-444 -552 0
-444 445 0
444 -445 552 0
-445 -556 0
-445 446 0
445 -446 556 0
-446 -563 0
-446 447 0
446 -447 563 0
-447 -570 0
-447 448 0
447 -448 570 0
-448 -574 0
-448 449 0
448 -449 574 0
-449 -578 0
-449 -582 0
449 582 578 0
450 591 0
450 -451 0
-450 451 -591 0
450 0
-451 -544 0
-451 452 0
451 -452 544 0
-452 -548 0
-452 453 0
452 -453 548 0
-453 -552 0
-453 454 0
453 -454 552 0
-454 -556 0
-454 455 0
454 -455 556 0
-455 -563 0
-455 456 0
455 -456 563 0
-456 -570 0
-456 457 0
456 -457 570 0
-457 -574 0
-457 458 0
457 -458 574 0
-458 -578 0
-458 459 0
458 -459 578 0
-459 -582 0
-459 -587 0
459 587 582 0
460 595 0
460 -461 0
-460 461 -595 0
460 0
-461 -544 0
-461 462 0
461 -462 544 0
-462 -548 0
-462 463 0
462 -463 548 0
-463 -552 0
-463 464 0
463 -464 552 0
-464 -556 0
-464 465 0
464 -465 556 0
-465 -563 0
-465 466 0
465 -466 563 0
-466 -570 0
-466 467 0
466 -467 570 0
-467 -574 0
-467 468 0
467 -468 574 0
-468 -578 0
-468 469 0
468 -469 578 0
-469 -582 0
-469 470 0
469 -470 582 0
-470 -587 0
-470 -591 0
470 591 587 0
471 599 0
471 -472 0
-471 472 -599 0
471 0
-472 -544 0
-472 473 0
472 -473 544 0
-473 -548 0
-473 474 0
473 -474 548 0
-474 -552 0
-474 475 0
474 -475 552 0
-475 -556 0
-475 476 0
475 -476 556 0
-476 -563 0
-476 477 0
476 -477 563 0
-477 -570 0
-477 478 0
477 -478 570 0
-478 -574 0
-478 479 0
478 -479 574 0
-479 -578 0
-479 480 0
479 -480 578 0
-480 -582 0
-480 481 0
480 -481 582 0
-481 -587 0
-481 482 0
481 -482 587 0
-482 -591 0
-482 -595 0
482 595 591 0
483 606 0
483 -484 0
-483 484 -606 0
483 0
-484 -544 0
-484 485 0
484 -485 544 0
-485 -548 0
-485 486 0
485 -486 548 0
-486 -552 0
-486 487 0
486 -487 552 0
-487 -556 0
-487 488 0
487 -488 556 0
-488 -563 0
-488 489 0
488 -489 563 0
-489 -570 0
-489 490 0
489 -490 570 0
-490 -574 0
-490 491 0
490 -491 574 0
-491 -578 0
-491 492 0
491 -492 578 0
-492 -582 0
-492 493 0
492 -493 582 0
-493 -587 0
-493 494 0
493 -494 587 0
-494 -591 0
-494 495 0
494 -495 591 0
-495 -595 0
-495 -599 0
495 599 595 0
496 610 0
496 -497 0
-496 497 -610 0
496 0
-497 -544 0
-497 498 0
497 -498 544 0
-498 -548 0
-498 499 0
498 -499 548 0
-499 -552 0
-499 500 0
499 -500 552 0
-500 -556 0
-500 501 0
500 -501 556 0
-501 -563 0
-501 502 0
501 -502 563 0
-502 -570 0
-502 503 0
502 -503 570 0
-503 -574 0
-503 504 0
503 -504 574 0
-504 -578 0
-504 505 0
504 -505 578 0
-505 -582 0
-505 506 0
505 -506 582 0
-506 -587 0
-506 507 0
506 -507 587 0
-507 -591 0
-507 508 0
507 -508 591 0
-508 -595 0
-508 509 0
508 -509 595 0
-509 -599 0
-509 -606 0
509 606 599 0
510 614 0
510 -511 0
-510 511 -614 0
510 0
-511 -544 0
-511 512 0
511 -512 544 0
-512 -548 0
-512 513 0
512 -513 548 0
-513 -552 0
-513 514 0
513 -514 552 0
-514 -556 0
-514 515 0
514 -515 556 0
-515 -563 0
-515 516 0
515 -516 563 0
-516 -570 0
-516 517 0
516 -517 570 0
-517 -574 0
-517 518 0
517 -518 574 0
-518 -578 0
-518 519 0
518 -519 578 0
-519 -582 0
-519 520 0
519 -520 582 0
-520 -587 0
-520 521 0
520 -521 587 0
-521 -591 0
-521 522 0
521 -522 591 0
-522 -595 0
-522 523 0
522 -523 595 0
-523 -599 0
-523 524 0
523 -524 599 0
-524 -606 0
-524 -610 0
524 610 606 0
525 618 0
525 -526 0
-525 526 -618 0
525 0
-526 -544 0
-526 527 0
526 -527 544 0
-527 -548 0
-527 528 0
527 -528 548 0
-528 -552 0
-528 529 0
528 -529 552 0
-529 -556 0
-529 530 0
529 -530 556 0
-530 -563 0
-530 531 0
530 -531 563 0
-531 -570 0
-531 532 0
531 -532 570 0
-532 -574 0
-532 533 0
532 -533 574 0
-533 -578 0
-533 534 0
533 -534 578 0
-534 -582 0
-534 535 0
534 -535 582 0
-535 -587 0
-535 536 0
535 -536 587 0
-536 -591 0
-536 537 0
536 -537 591 0
-537 -595 0
-537 538 0
537 -538 595 0
-538 -599 0
-538 539 0
538 -539 599 0
-539 -606 0
-539 540 0
539 -540 606 0
-540 -610 0
-540 -614 0
540 614 610 0
541 -542 0
541 -545 0
-541 545 542 0
541 0
-542 53 0
-542 616 0
542 -616 -53 0
545 -546 0
545 -549 0
-545 549 546 0
-546 62 0
-546 616 0
546 -616 -62 0
549 -550 0
549 -553 0
-549 553 550 0
-550 64 0
-550 616 0
550 -616 -64 0
553 -554 0
553 -557 0
-553 557 554 0
-554 32 0
-554 616 0
554 -616 -32 0
557 -558 0
557 -560 0
-557 560 558 0
-558 80 0
-558 585 0
558 -585 -80 0
560 -561 0
560 -564 0
-560 564 561 0
-561 34 0
-561 616 0
561 -616 -34 0
564 -565 0
564 -567 0
-564 567 565 0
-565 36 0
-565 616 0
565 -616 -36 0
567 -568 0
567 -571 0
-567 571 568 0
-568 66 0
-568 616 0
568 -616 -66 0
571 -572 0
571 -575 0
-571 575 572 0
-572 68 0
-572 585 0
572 -585 -68 0
575 -576 0
575 -579 0
-575 579 576 0
-576 38 0
-576 616 0
576 -616 -38 0
579 -580 0
579 -583 0
-579 583 580 0
-580 82 0
-580 616 0
580 -616 -82 0
583 -584 0
583 -588 0
-583 588 584 0
-584 83 0
-584 585 0
584 -585 -83 0
588 -589 0
588 -592 0
-588 592 589 0
-589 40 0
-589 616 0
589 -616 -40 0
592 -593 0
592 -596 0
-592 596 593 0
-593 70 0
-593 616 0
593 -616 -70 0
596 -597 0
596 -600 0
-596 600 597 0
-597 54 0
-597 616 0
597 -616 -54 0
600 -601 0
600 -603 0
-600 603 601 0
-601 42 0
-601 616 0
601 -616 -42 0
603 -604 0
603 -607 0
-603 607 604 0
-604 72 0
-604 616 0
604 -616 -72 0
607 -608 0
607 -611 0
-607 611 608 0
-608 73 0
-608 616 0
608 -616 -73 0
611 -612 0
611 -615 0
-611 615 612 0
-612 44 0
-612 616 0
612 -616 -44 0
-615 45 0
-615 616 0
615 -616 -45 0
